
Gurobi 10.0.1 (linux64) logging started Sun Nov 26 17:00:01 2023

Set parameter LogFile to value "ArtificialInstance/ExperimentV2/S4T5K2/AdRo/gurobi91.txt"
Gurobi Optimizer version 10.0.1 build v10.0.1rc0 (linux64)

CPU model: AMD EPYC 7H12 64-Core Processor, instruction set [SSE2|AVX|AVX2]
Thread count: 128 physical cores, 128 logical processors, using up to 32 threads

Academic license 656792 - for non-commercial use only - registered to b.___@student.vu.nl
Optimize a model with 14044 rows, 13216 columns and 51331 nonzeros
Model fingerprint: 0xca3fd8b6
Variable types: 1 continuous, 13215 integer (13215 binary)
Coefficient statistics:
  Matrix range     [1e+00, 4e+01]
  Objective range  [1e+00, 2e+01]
  Bounds range     [1e+00, 1e+00]
  RHS range        [1e+00, 1e+00]
Presolve removed 3055 rows and 3069 columns
Presolve time: 0.24s
Presolved: 10989 rows, 10147 columns, 40629 nonzeros
Variable types: 1 continuous, 10146 integer (10146 binary)

Root relaxation: objective 6.600531e+01, 6787 iterations, 0.68 seconds (0.61 work units)

    Nodes    |    Current Node    |     Objective Bounds      |     Work
 Expl Unexpl |  Obj  Depth IntInf | Incumbent    BestBd   Gap | It/Node Time

     0     0   66.00531    0  399          -   66.00531      -     -    1s
H    0     0                      84.4993511   66.00531  21.9%     -    1s
H    0     0                      75.1244340   66.00531  12.1%     -    1s
H    0     0                      73.8464091   66.00531  10.6%     -    1s
H    0     0                      66.2398749   66.00531  0.35%     -    1s

Cutting planes:
  Gomory: 4
  Zero half: 11
  RLT: 4

Explored 1 nodes (11849 simplex iterations) in 1.41 seconds (1.08 work units)
Thread count was 32 (of 128 available processors)

Solution count 4: 66.2399 73.8464 75.1244 84.4994 

Optimal solution found (tolerance 1.00e-04)
Best objective 6.623987487261e+01, best bound 6.623987487261e+01, gap 0.0000%
